solution status: optimal solution found
objective value:                                    0
$_7_y                                              17 	(obj:0)
$_7_z                                              16 	(obj:0)
$_2_y                                              17 	(obj:0)
$_2_z                                              17 	(obj:0)
$_9_y                                              16 	(obj:0)
$_9_z                                              17 	(obj:0)
$_4_y                                              16 	(obj:0)
$_4_z                                              18 	(obj:0)
